p edge 119 3339
e 1 5
e 1 7
e 1 8
e 1 9
e 1 12
e 1 14
e 1 15
e 1 17
e 1 21
e 1 28
e 1 32
e 1 34
e 1 35
e 1 39
e 1 40
e 1 42
e 1 43
e 1 44
e 1 45
e 1 46
e 1 51
e 1 54
e 1 63
e 1 65
e 1 67
e 1 68
e 1 69
e 1 72
e 1 75
e 1 77
e 1 80
e 1 85
e 1 86
e 1 87
e 1 89
e 1 97
e 1 98
e 1 99
e 1 100
e 1 101
e 1 102
e 1 106
e 1 110
e 1 115
e 1 116
e 2 3
e 2 5
e 2 9
e 2 12
e 2 15
e 2 18
e 2 19
e 2 25
e 2 26
e 2 28
e 2 29
e 2 30
e 2 31
e 2 32
e 2 34
e 2 41
e 2 42
e 2 43
e 2 45
e 2 46
e 2 48
e 2 49
e 2 50
e 2 51
e 2 52
e 2 53
e 2 56
e 2 57
e 2 58
e 2 61
e 2 63
e 2 64
e 2 67
e 2 68
e 2 70
e 2 76
e 2 78
e 2 81
e 2 83
e 2 84
e 2 85
e 2 86
e 2 87
e 2 89
e 2 91
e 2 92
e 2 95
e 2 99
e 2 100
e 2 101
e 2 102
e 2 104
e 2 107
e 2 108
e 2 110
e 2 112
e 2 117
e 2 118
e 2 119
e 3 4
e 3 5
e 3 14
e 3 15
e 3 18
e 3 22
e 3 23
e 3 24
e 3 25
e 3 26
e 3 27
e 3 31
e 3 32
e 3 33
e 3 34
e 3 36
e 3 38
e 3 39
e 3 47
e 3 49
e 3 55
e 3 58
e 3 62
e 3 64
e 3 65
e 3 67
e 3 69
e 3 70
e 3 72
e 3 77
e 3 78
e 3 80
e 3 82
e 3 83
e 3 85
e 3 86
e 3 87
e 3 88
e 3 89
e 3 92
e 3 94
e 3 95
e 3 96
e 3 98
e 3 99
e 3 101
e 3 103
e 3 104
e 3 106
e 3 109
e 3 111
e 3 112
e 3 114
e 4 5
e 4 6
e 4 8
e 4 9
e 4 10
e 4 11
e 4 12
e 4 13
e 4 15
e 4 17
e 4 19
e 4 21
e 4 23
e 4 24
e 4 28
e 4 30
e 4 33
e 4 36
e 4 37
e 4 38
e 4 39
e 4 42
e 4 44
e 4 45
e 4 50
e 4 52
e 4 53
e 4 55
e 4 60
e 4 62
e 4 66
e 4 68
e 4 70
e 4 75
e 4 77
e 4 82
e 4 83
e 4 84
e 4 85
e 4 87
e 4 88
e 4 92
e 4 94
e 4 95
e 4 98
e 4 101
e 4 102
e 4 105
e 4 106
e 4 109
e 4 112
e 4 116
e 4 117
e 5 9
e 5 10
e 5 11
e 5 13
e 5 17
e 5 18
e 5 19
e 5 25
e 5 27
e 5 28
e 5 33
e 5 36
e 5 41
e 5 44
e 5 45
e 5 46
e 5 49
e 5 54
e 5 55
e 5 57
e 5 58
e 5 60
e 5 61
e 5 62
e 5 65
e 5 66
e 5 68
e 5 69
e 5 70
e 5 71
e 5 73
e 5 74
e 5 75
e 5 78
e 5 82
e 5 83
e 5 87
e 5 92
e 5 94
e 5 95
e 5 98
e 5 99
e 5 100
e 5 102
e 5 103
e 5 104
e 5 105
e 5 106
e 5 110
e 5 112
e 5 114
e 5 116
e 5 118
e 5 119
e 6 7
e 6 8
e 6 10
e 6 12
e 6 13
e 6 14
e 6 15
e 6 16
e 6 17
e 6 20
e 6 23
e 6 24
e 6 25
e 6 27
e 6 29
e 6 30
e 6 33
e 6 35
e 6 37
e 6 39
e 6 41
e 6 43
e 6 44
e 6 45
e 6 51
e 6 53
e 6 54
e 6 61
e 6 63
e 6 67
e 6 69
e 6 71
e 6 72
e 6 73
e 6 74
e 6 75
e 6 79
e 6 80
e 6 82
e 6 85
e 6 86
e 6 91
e 6 92
e 6 94
e 6 96
e 6 100
e 6 102
e 6 103
e 6 108
e 6 109
e 6 110
e 6 111
e 6 112
e 6 113
e 6 114
e 6 115
e 6 116
e 6 117
e 7 9
e 7 11
e 7 14
e 7 17
e 7 21
e 7 22
e 7 24
e 7 25
e 7 26
e 7 27
e 7 30
e 7 31
e 7 33
e 7 35
e 7 37
e 7 38
e 7 40
e 7 41
e 7 42
e 7 43
e 7 44
e 7 48
e 7 50
e 7 51
e 7 54
e 7 57
e 7 59
e 7 60
e 7 63
e 7 64
e 7 65
e 7 66
e 7 77
e 7 78
e 7 80
e 7 81
e 7 82
e 7 84
e 7 85
e 7 86
e 7 94
e 7 97
e 7 98
e 7 100
e 7 101
e 7 103
e 7 104
e 7 106
e 7 108
e 7 111
e 7 115
e 7 117
e 7 118
e 8 12
e 8 13
e 8 15
e 8 17
e 8 18
e 8 24
e 8 25
e 8 27
e 8 29
e 8 31
e 8 32
e 8 34
e 8 35
e 8 37
e 8 38
e 8 41
e 8 43
e 8 44
e 8 45
e 8 47
e 8 48
e 8 49
e 8 51
e 8 52
e 8 55
e 8 56
e 8 57
e 8 60
e 8 64
e 8 65
e 8 68
e 8 70
e 8 71
e 8 72
e 8 75
e 8 77
e 8 78
e 8 80
e 8 81
e 8 83
e 8 85
e 8 86
e 8 87
e 8 88
e 8 91
e 8 93
e 8 94
e 8 95
e 8 99
e 8 103
e 8 106
e 8 109
e 8 110
e 8 111
e 8 113
e 8 115
e 8 116
e 8 117
e 8 119
e 9 11
e 9 12
e 9 16
e 9 18
e 9 23
e 9 24
e 9 25
e 9 26
e 9 27
e 9 31
e 9 32
e 9 35
e 9 36
e 9 38
e 9 39
e 9 40
e 9 43
e 9 45
e 9 46
e 9 49
e 9 53
e 9 54
e 9 56
e 9 60
e 9 64
e 9 66
e 9 67
e 9 68
e 9 70
e 9 71
e 9 72
e 9 73
e 9 75
e 9 76
e 9 77
e 9 80
e 9 81
e 9 83
e 9 87
e 9 94
e 9 96
e 9 97
e 9 98
e 9 100
e 9 101
e 9 102
e 9 103
e 9 104
e 9 105
e 9 106
e 9 110
e 9 111
e 9 112
e 9 115
e 9 118
e 10 14
e 10 15
e 10 18
e 10 20
e 10 21
e 10 22
e 10 23
e 10 24
e 10 26
e 10 28
e 10 29
e 10 33
e 10 34
e 10 35
e 10 36
e 10 39
e 10 40
e 10 41
e 10 44
e 10 45
e 10 46
e 10 48
e 10 49
e 10 52
e 10 54
e 10 55
e 10 56
e 10 60
e 10 61
e 10 63
e 10 64
e 10 65
e 10 66
e 10 67
e 10 69
e 10 70
e 10 71
e 10 72
e 10 73
e 10 83
e 10 84
e 10 87
e 10 88
e 10 90
e 10 91
e 10 92
e 10 93
e 10 95
e 10 96
e 10 99
e 10 102
e 10 105
e 10 110
e 10 112
e 10 115
e 10 116
e 10 119
e 11 12
e 11 13
e 11 14
e 11 24
e 11 30
e 11 34
e 11 35
e 11 39
e 11 41
e 11 43
e 11 44
e 11 45
e 11 47
e 11 48
e 11 49
e 11 51
e 11 55
e 11 57
e 11 58
e 11 59
e 11 60
e 11 65
e 11 68
e 11 69
e 11 70
e 11 73
e 11 75
e 11 76
e 11 79
e 11 80
e 11 81
e 11 82
e 11 83
e 11 85
e 11 87
e 11 88
e 11 90
e 11 92
e 11 93
e 11 94
e 11 95
e 11 96
e 11 97
e 11 98
e 11 102
e 11 104
e 11 105
e 11 106
e 11 109
e 11 112
e 11 115
e 12 13
e 12 14
e 12 15
e 12 16
e 12 17
e 12 18
e 12 21
e 12 26
e 12 29
e 12 30
e 12 32
e 12 34
e 12 35
e 12 38
e 12 39
e 12 40
e 12 42
e 12 46
e 12 50
e 12 51
e 12 52
e 12 53
e 12 54
e 12 58
e 12 63
e 12 66
e 12 67
e 12 71
e 12 72
e 12 73
e 12 77
e 12 78
e 12 81
e 12 82
e 12 83
e 12 86
e 12 88
e 12 89
e 12 91
e 12 92
e 12 94
e 12 95
e 12 97
e 12 100
e 12 101
e 12 102
e 12 106
e 12 108
e 12 109
e 12 111
e 12 117
e 12 118
e 13 14
e 13 16
e 13 17
e 13 20
e 13 23
e 13 25
e 13 31
e 13 32
e 13 34
e 13 35
e 13 37
e 13 38
e 13 40
e 13 47
e 13 50
e 13 51
e 13 52
e 13 54
e 13 58
e 13 59
e 13 61
e 13 64
e 13 65
e 13 67
e 13 69
e 13 70
e 13 72
e 13 75
e 13 77
e 13 82
e 13 83
e 13 84
e 13 86
e 13 87
e 13 89
e 13 90
e 13 91
e 13 92
e 13 94
e 13 95
e 13 97
e 13 100
e 13 101
e 13 102
e 13 103
e 13 104
e 13 106
e 13 107
e 13 113
e 13 118
e 13 119
e 14 20
e 14 22
e 14 24
e 14 25
e 14 26
e 14 27
e 14 28
e 14 30
e 14 31
e 14 32
e 14 33
e 14 36
e 14 38
e 14 40
e 14 42
e 14 45
e 14 47
e 14 49
e 14 53
e 14 57
e 14 58
e 14 59
e 14 60
e 14 68
e 14 69
e 14 71
e 14 73
e 14 75
e 14 76
e 14 77
e 14 78
e 14 79
e 14 80
e 14 83
e 14 85
e 14 86
e 14 87
e 14 90
e 14 91
e 14 92
e 14 94
e 14 95
e 14 96
e 14 98
e 14 100
e 14 103
e 14 104
e 14 105
e 14 106
e 14 107
e 14 109
e 15 17
e 15 18
e 15 19
e 15 20
e 15 22
e 15 23
e 15 24
e 15 25
e 15 26
e 15 28
e 15 29
e 15 32
e 15 33
e 15 35
e 15 39
e 15 43
e 15 46
e 15 47
e 15 48
e 15 52
e 15 56
e 15 57
e 15 61
e 15 62
e 15 65
e 15 71
e 15 73
e 15 76
e 15 78
e 15 80
e 15 83
e 15 84
e 15 85
e 15 88
e 15 89
e 15 90
e 15 95
e 15 98
e 15 99
e 15 100
e 15 102
e 15 103
e 15 106
e 15 108
e 15 109
e 15 112
e 15 115
e 15 117
e 15 119
e 16 17
e 16 20
e 16 21
e 16 24
e 16 25
e 16 28
e 16 32
e 16 33
e 16 34
e 16 35
e 16 38
e 16 43
e 16 44
e 16 45
e 16 48
e 16 53
e 16 54
e 16 57
e 16 58
e 16 61
e 16 64
e 16 65
e 16 69
e 16 71
e 16 72
e 16 73
e 16 76
e 16 78
e 16 79
e 16 83
e 16 84
e 16 86
e 16 87
e 16 88
e 16 90
e 16 92
e 16 94
e 16 96
e 16 100
e 16 106
e 16 111
e 16 112
e 16 114
e 16 116
e 16 117
e 16 118
e 16 119
e 17 18
e 17 20
e 17 22
e 17 23
e 17 26
e 17 30
e 17 31
e 17 34
e 17 37
e 17 39
e 17 41
e 17 44
e 17 47
e 17 48
e 17 50
e 17 57
e 17 58
e 17 59
e 17 60
e 17 62
e 17 65
e 17 69
e 17 70
e 17 71
e 17 72
e 17 73
e 17 74
e 17 75
e 17 77
e 17 80
e 17 82
e 17 83
e 17 84
e 17 85
e 17 86
e 17 89
e 17 90
e 17 92
e 17 97
e 17 99
e 17 105
e 17 108
e 17 109
e 17 113
e 17 114
e 17 115
e 17 116
e 18 19
e 18 20
e 18 22
e 18 24
e 18 25
e 18 27
e 18 30
e 18 33
e 18 35
e 18 37
e 18 40
e 18 41
e 18 42
e 18 43
e 18 44
e 18 45
e 18 47
e 18 49
e 18 50
e 18 52
e 18 53
e 18 55
e 18 56
e 18 60
e 18 62
e 18 64
e 18 68
e 18 69
e 18 72
e 18 73
e 18 74
e 18 77
e 18 81
e 18 84
e 18 85
e 18 86
e 18 88
e 18 91
e 18 95
e 18 96
e 18 97
e 18 99
e 18 102
e 18 103
e 18 104
e 18 106
e 18 107
e 18 110
e 18 111
e 19 20
e 19 21
e 19 25
e 19 30
e 19 31
e 19 32
e 19 33
e 19 34
e 19 37
e 19 38
e 19 40
e 19 41
e 19 42
e 19 46
e 19 48
e 19 49
e 19 51
e 19 52
e 19 55
e 19 56
e 19 59
e 19 61
e 19 62
e 19 63
e 19 64
e 19 70
e 19 71
e 19 73
e 19 74
e 19 76
e 19 77
e 19 78
e 19 80
e 19 81
e 19 82
e 19 83
e 19 85
e 19 86
e 19 90
e 19 95
e 19 97
e 19 98
e 19 100
e 19 102
e 19 107
e 19 110
e 19 111
e 19 115
e 19 116
e 19 118
e 20 21
e 20 24
e 20 26
e 20 27
e 20 29
e 20 30
e 20 32
e 20 34
e 20 35
e 20 37
e 20 38
e 20 39
e 20 41
e 20 43
e 20 45
e 20 46
e 20 47
e 20 49
e 20 50
e 20 51
e 20 52
e 20 53
e 20 56
e 20 57
e 20 62
e 20 64
e 20 65
e 20 66
e 20 71
e 20 79
e 20 84
e 20 86
e 20 88
e 20 89
e 20 90
e 20 92
e 20 96
e 20 98
e 20 102
e 20 104
e 20 109
e 20 110
e 20 113
e 20 115
e 21 22
e 21 24
e 21 25
e 21 27
e 21 28
e 21 29
e 21 32
e 21 33
e 21 34
e 21 40
e 21 41
e 21 44
e 21 46
e 21 48
e 21 50
e 21 52
e 21 53
e 21 55
e 21 58
e 21 62
e 21 63
e 21 64
e 21 66
e 21 69
e 21 74
e 21 76
e 21 78
e 21 79
e 21 80
e 21 88
e 21 89
e 21 93
e 21 98
e 21 99
e 21 101
e 21 103
e 21 113
e 21 117
e 21 118
e 22 27
e 22 28
e 22 29
e 22 30
e 22 32
e 22 33
e 22 41
e 22 44
e 22 46
e 22 47
e 22 48
e 22 49
e 22 53
e 22 54
e 22 55
e 22 57
e 22 58
e 22 59
e 22 62
e 22 63
e 22 64
e 22 65
e 22 68
e 22 72
e 22 73
e 22 78
e 22 79
e 22 80
e 22 81
e 22 82
e 22 85
e 22 86
e 22 89
e 22 90
e 22 95
e 22 96
e 22 97
e 22 98
e 22 101
e 22 106
e 22 109
e 22 110
e 22 114
e 22 115
e 22 117
e 23 24
e 23 29
e 23 34
e 23 37
e 23 39
e 23 40
e 23 41
e 23 44
e 23 45
e 23 46
e 23 47
e 23 48
e 23 51
e 23 52
e 23 57
e 23 58
e 23 59
e 23 62
e 23 64
e 23 69
e 23 72
e 23 74
e 23 80
e 23 81
e 23 83
e 23 87
e 23 88
e 23 92
e 23 93
e 23 94
e 23 95
e 23 96
e 23 97
e 23 99
e 23 100
e 23 101
e 23 103
e 23 106
e 23 107
e 23 108
e 23 112
e 23 113
e 23 116
e 24 27
e 24 31
e 24 32
e 24 34
e 24 42
e 24 46
e 24 49
e 24 52
e 24 54
e 24 55
e 24 57
e 24 60
e 24 62
e 24 63
e 24 64
e 24 66
e 24 69
e 24 73
e 24 77
e 24 78
e 24 79
e 24 81
e 24 82
e 24 84
e 24 85
e 24 90
e 24 91
e 24 92
e 24 93
e 24 94
e 24 97
e 24 99
e 24 102
e 24 103
e 24 104
e 24 107
e 24 110
e 24 113
e 24 117
e 24 118
e 25 27
e 25 29
e 25 31
e 25 33
e 25 35
e 25 36
e 25 38
e 25 39
e 25 40
e 25 41
e 25 43
e 25 44
e 25 49
e 25 50
e 25 51
e 25 54
e 25 57
e 25 59
e 25 61
e 25 66
e 25 69
e 25 72
e 25 73
e 25 74
e 25 78
e 25 81
e 25 85
e 25 87
e 25 88
e 25 89
e 25 90
e 25 91
e 25 93
e 25 94
e 25 97
e 25 98
e 25 99
e 25 102
e 25 103
e 25 104
e 25 107
e 25 110
e 25 111
e 25 114
e 26 28
e 26 37
e 26 38
e 26 41
e 26 42
e 26 43
e 26 44
e 26 48
e 26 49
e 26 50
e 26 51
e 26 59
e 26 60
e 26 61
e 26 63
e 26 64
e 26 65
e 26 67
e 26 68
e 26 69
e 26 70
e 26 72
e 26 75
e 26 77
e 26 79
e 26 81
e 26 83
e 26 85
e 26 87
e 26 90
e 26 92
e 26 96
e 26 97
e 26 99
e 26 100
e 26 101
e 26 102
e 26 103
e 26 104
e 26 105
e 26 107
e 26 108
e 26 109
e 26 114
e 26 115
e 26 116
e 26 119
e 27 28
e 27 29
e 27 30
e 27 31
e 27 32
e 27 33
e 27 38
e 27 39
e 27 40
e 27 41
e 27 46
e 27 48
e 27 51
e 27 52
e 27 56
e 27 59
e 27 64
e 27 65
e 27 71
e 27 72
e 27 78
e 27 81
e 27 84
e 27 85
e 27 88
e 27 89
e 27 90
e 27 93
e 27 95
e 27 97
e 27 98
e 27 99
e 27 104
e 27 105
e 27 109
e 27 112
e 27 114
e 27 117
e 27 119
e 28 30
e 28 31
e 28 33
e 28 36
e 28 37
e 28 38
e 28 40
e 28 41
e 28 44
e 28 45
e 28 46
e 28 47
e 28 49
e 28 51
e 28 53
e 28 54
e 28 56
e 28 58
e 28 62
e 28 65
e 28 70
e 28 73
e 28 75
e 28 77
e 28 80
e 28 83
e 28 84
e 28 87
e 28 88
e 28 91
e 28 93
e 28 95
e 28 96
e 28 97
e 28 103
e 28 104
e 28 109
e 28 110
e 28 111
e 28 112
e 28 115
e 28 116
e 28 118
e 29 33
e 29 36
e 29 37
e 29 38
e 29 41
e 29 45
e 29 47
e 29 48
e 29 49
e 29 50
e 29 52
e 29 54
e 29 55
e 29 57
e 29 58
e 29 63
e 29 65
e 29 68
e 29 71
e 29 73
e 29 75
e 29 76
e 29 77
e 29 80
e 29 82
e 29 84
e 29 87
e 29 89
e 29 94
e 29 97
e 29 98
e 29 100
e 29 101
e 29 102
e 29 105
e 29 107
e 29 108
e 29 109
e 29 110
e 29 112
e 30 33
e 30 34
e 30 35
e 30 36
e 30 40
e 30 42
e 30 43
e 30 45
e 30 48
e 30 50
e 30 51
e 30 52
e 30 54
e 30 55
e 30 57
e 30 64
e 30 69
e 30 71
e 30 77
e 30 81
e 30 82
e 30 85
e 30 86
e 30 87
e 30 90
e 30 91
e 30 94
e 30 98
e 30 99
e 30 102
e 30 105
e 30 107
e 30 110
e 30 116
e 30 119
e 31 34
e 31 41
e 31 42
e 31 47
e 31 48
e 31 54
e 31 55
e 31 56
e 31 57
e 31 62
e 31 63
e 31 64
e 31 69
e 31 71
e 31 72
e 31 74
e 31 75
e 31 76
e 31 78
e 31 82
e 31 85
e 31 86
e 31 88
e 31 90
e 31 91
e 31 95
e 31 96
e 31 97
e 31 100
e 31 101
e 31 102
e 31 103
e 31 105
e 31 107
e 31 108
e 31 110
e 31 111
e 31 115
e 31 117
e 31 118
e 32 33
e 32 34
e 32 35
e 32 39
e 32 41
e 32 42
e 32 43
e 32 44
e 32 45
e 32 46
e 32 49
e 32 51
e 32 53
e 32 54
e 32 55
e 32 57
e 32 58
e 32 60
e 32 61
e 32 64
e 32 69
e 32 71
e 32 73
e 32 74
e 32 76
e 32 77
e 32 80
e 32 81
e 32 84
e 32 90
e 32 95
e 32 97
e 32 98
e 32 99
e 32 100
e 32 101
e 32 102
e 32 103
e 32 105
e 32 106
e 32 107
e 32 108
e 32 109
e 32 110
e 32 111
e 32 112
e 32 113
e 32 115
e 32 116
e 32 119
e 33 34
e 33 38
e 33 40
e 33 41
e 33 43
e 33 47
e 33 48
e 33 50
e 33 53
e 33 55
e 33 59
e 33 60
e 33 61
e 33 62
e 33 63
e 33 65
e 33 69
e 33 70
e 33 73
e 33 74
e 33 75
e 33 77
e 33 78
e 33 81
e 33 84
e 33 86
e 33 88
e 33 90
e 33 91
e 33 92
e 33 96
e 33 98
e 33 101
e 33 105
e 33 109
e 33 110
e 33 112
e 33 113
e 33 114
e 33 115
e 33 118
e 34 35
e 34 39
e 34 42
e 34 43
e 34 44
e 34 45
e 34 46
e 34 49
e 34 51
e 34 52
e 34 58
e 34 60
e 34 61
e 34 65
e 34 66
e 34 68
e 34 69
e 34 70
e 34 71
e 34 72
e 34 78
e 34 79
e 34 82
e 34 83
e 34 87
e 34 92
e 34 98
e 34 101
e 34 106
e 34 107
e 34 109
e 34 111
e 34 112
e 34 113
e 34 115
e 34 116
e 34 118
e 35 36
e 35 37
e 35 38
e 35 40
e 35 43
e 35 46
e 35 47
e 35 48
e 35 49
e 35 51
e 35 52
e 35 53
e 35 56
e 35 57
e 35 59
e 35 62
e 35 63
e 35 66
e 35 67
e 35 68
e 35 69
e 35 73
e 35 74
e 35 76
e 35 78
e 35 79
e 35 80
e 35 81
e 35 84
e 35 88
e 35 91
e 35 92
e 35 93
e 35 94
e 35 95
e 35 97
e 35 98
e 35 99
e 35 102
e 35 103
e 35 104
e 35 105
e 35 110
e 35 118
e 36 37
e 36 41
e 36 43
e 36 45
e 36 46
e 36 48
e 36 50
e 36 51
e 36 55
e 36 56
e 36 58
e 36 59
e 36 60
e 36 63
e 36 64
e 36 67
e 36 68
e 36 69
e 36 70
e 36 72
e 36 74
e 36 80
e 36 85
e 36 86
e 36 89
e 36 91
e 36 92
e 36 95
e 36 98
e 36 99
e 36 100
e 36 102
e 36 104
e 36 106
e 36 107
e 36 108
e 36 109
e 36 110
e 36 112
e 36 113
e 36 114
e 36 115
e 37 38
e 37 40
e 37 41
e 37 42
e 37 43
e 37 44
e 37 46
e 37 47
e 37 48
e 37 51
e 37 53
e 37 54
e 37 55
e 37 59
e 37 60
e 37 62
e 37 67
e 37 69
e 37 72
e 37 77
e 37 79
e 37 80
e 37 84
e 37 85
e 37 87
e 37 95
e 37 97
e 37 101
e 37 104
e 37 105
e 37 106
e 37 107
e 37 111
e 37 113
e 37 114
e 37 117
e 37 119
e 38 42
e 38 43
e 38 44
e 38 50
e 38 52
e 38 55
e 38 56
e 38 60
e 38 64
e 38 65
e 38 67
e 38 68
e 38 69
e 38 71
e 38 75
e 38 77
e 38 79
e 38 80
e 38 81
e 38 82
e 38 88
e 38 89
e 38 90
e 38 93
e 38 97
e 38 100
e 38 101
e 38 102
e 38 106
e 38 109
e 38 111
e 38 112
e 38 113
e 38 115
e 39 41
e 39 43
e 39 44
e 39 46
e 39 48
e 39 50
e 39 52
e 39 60
e 39 61
e 39 63
e 39 67
e 39 69
e 39 71
e 39 72
e 39 73
e 39 75
e 39 78
e 39 81
e 39 82
e 39 83
e 39 84
e 39 86
e 39 87
e 39 95
e 39 97
e 39 98
e 39 100
e 39 101
e 39 102
e 39 107
e 39 108
e 39 109
e 39 112
e 39 114
e 39 115
e 39 118
e 39 119
e 40 41
e 40 45
e 40 46
e 40 47
e 40 48
e 40 49
e 40 55
e 40 56
e 40 57
e 40 59
e 40 61
e 40 64
e 40 68
e 40 69
e 40 70
e 40 71
e 40 72
e 40 73
e 40 76
e 40 79
e 40 80
e 40 81
e 40 84
e 40 87
e 40 89
e 40 90
e 40 92
e 40 93
e 40 94
e 40 95
e 40 96
e 40 97
e 40 101
e 40 102
e 40 103
e 40 104
e 40 105
e 40 106
e 40 109
e 40 110
e 40 114
e 40 115
e 40 116
e 40 117
e 41 42
e 41 44
e 41 45
e 41 47
e 41 48
e 41 49
e 41 54
e 41 57
e 41 58
e 41 60
e 41 63
e 41 65
e 41 66
e 41 68
e 41 69
e 41 72
e 41 73
e 41 74
e 41 75
e 41 77
e 41 78
e 41 79
e 41 80
e 41 81
e 41 82
e 41 84
e 41 86
e 41 87
e 41 89
e 41 90
e 41 91
e 41 92
e 41 95
e 41 98
e 41 100
e 41 106
e 41 107
e 41 110
e 41 111
e 41 112
e 41 113
e 41 114
e 41 115
e 41 117
e 41 119
e 42 43
e 42 44
e 42 45
e 42 46
e 42 48
e 42 50
e 42 52
e 42 54
e 42 56
e 42 58
e 42 59
e 42 66
e 42 71
e 42 72
e 42 74
e 42 76
e 42 77
e 42 78
e 42 79
e 42 83
e 42 84
e 42 85
e 42 86
e 42 88
e 42 90
e 42 95
e 42 98
e 42 99
e 42 109
e 42 112
e 42 116
e 42 117
e 43 46
e 43 49
e 43 52
e 43 54
e 43 55
e 43 58
e 43 59
e 43 61
e 43 66
e 43 69
e 43 70
e 43 71
e 43 72
e 43 75
e 43 76
e 43 77
e 43 78
e 43 80
e 43 81
e 43 82
e 43 83
e 43 89
e 43 91
e 43 92
e 43 93
e 43 94
e 43 96
e 43 99
e 43 102
e 43 103
e 43 105
e 43 106
e 43 107
e 43 108
e 43 109
e 43 115
e 43 119
e 44 46
e 44 47
e 44 49
e 44 50
e 44 51
e 44 52
e 44 54
e 44 55
e 44 57
e 44 58
e 44 59
e 44 61
e 44 63
e 44 68
e 44 69
e 44 71
e 44 75
e 44 76
e 44 79
e 44 81
e 44 84
e 44 87
e 44 90
e 44 94
e 44 96
e 44 99
e 44 105
e 44 106
e 44 108
e 44 110
e 44 111
e 44 114
e 44 115
e 44 116
e 44 117
e 45 47
e 45 52
e 45 57
e 45 62
e 45 64
e 45 65
e 45 67
e 45 68
e 45 75
e 45 77
e 45 78
e 45 79
e 45 80
e 45 81
e 45 82
e 45 83
e 45 85
e 45 86
e 45 87
e 45 88
e 45 90
e 45 91
e 45 92
e 45 97
e 45 98
e 45 105
e 45 108
e 45 111
e 45 117
e 46 48
e 46 51
e 46 52
e 46 54
e 46 55
e 46 56
e 46 57
e 46 58
e 46 61
e 46 64
e 46 65
e 46 66
e 46 70
e 46 71
e 46 75
e 46 77
e 46 78
e 46 80
e 46 81
e 46 82
e 46 84
e 46 88
e 46 89
e 46 90
e 46 92
e 46 94
e 46 98
e 46 99
e 46 101
e 46 102
e 46 103
e 46 104
e 46 105
e 46 107
e 46 108
e 46 111
e 46 112
e 46 113
e 46 117
e 46 118
e 46 119
e 47 48
e 47 49
e 47 51
e 47 52
e 47 53
e 47 54
e 47 56
e 47 57
e 47 58
e 47 59
e 47 61
e 47 68
e 47 69
e 47 75
e 47 78
e 47 81
e 47 83
e 47 84
e 47 87
e 47 90
e 47 91
e 47 93
e 47 94
e 47 95
e 47 99
e 47 100
e 47 103
e 47 105
e 47 108
e 47 109
e 47 117
e 48 51
e 48 53
e 48 58
e 48 61
e 48 62
e 48 63
e 48 64
e 48 66
e 48 70
e 48 72
e 48 73
e 48 75
e 48 78
e 48 80
e 48 81
e 48 83
e 48 85
e 48 86
e 48 87
e 48 88
e 48 92
e 48 93
e 48 96
e 48 97
e 48 100
e 48 102
e 48 103
e 48 106
e 48 108
e 48 109
e 48 110
e 48 112
e 48 115
e 48 117
e 48 118
e 49 53
e 49 54
e 49 56
e 49 59
e 49 63
e 49 64
e 49 66
e 49 69
e 49 71
e 49 73
e 49 74
e 49 78
e 49 81
e 49 88
e 49 91
e 49 92
e 49 93
e 49 94
e 49 95
e 49 96
e 49 97
e 49 99
e 49 100
e 49 101
e 49 103
e 49 104
e 49 106
e 49 108
e 49 109
e 49 110
e 49 111
e 49 117
e 50 51
e 50 52
e 50 53
e 50 56
e 50 57
e 50 59
e 50 61
e 50 62
e 50 63
e 50 64
e 50 66
e 50 67
e 50 68
e 50 69
e 50 70
e 50 73
e 50 75
e 50 82
e 50 86
e 50 87
e 50 88
e 50 90
e 50 91
e 50 93
e 50 99
e 50 100
e 50 102
e 50 103
e 50 104
e 50 105
e 50 106
e 50 107
e 50 108
e 50 112
e 50 114
e 50 115
e 50 118
e 51 52
e 51 53
e 51 54
e 51 56
e 51 60
e 51 63
e 51 66
e 51 67
e 51 68
e 51 69
e 51 71
e 51 74
e 51 75
e 51 77
e 51 79
e 51 80
e 51 84
e 51 85
e 51 88
e 51 89
e 51 91
e 51 92
e 51 93
e 51 95
e 51 97
e 51 101
e 51 102
e 51 104
e 51 105
e 51 106
e 51 109
e 51 110
e 51 111
e 51 114
e 51 116
e 51 117
e 52 54
e 52 57
e 52 58
e 52 60
e 52 61
e 52 64
e 52 66
e 52 69
e 52 70
e 52 71
e 52 72
e 52 75
e 52 76
e 52 77
e 52 79
e 52 80
e 52 82
e 52 84
e 52 87
e 52 88
e 52 95
e 52 101
e 52 102
e 52 104
e 52 106
e 52 107
e 52 109
e 52 111
e 52 112
e 52 114
e 52 115
e 52 116
e 52 117
e 52 118
e 52 119
e 53 55
e 53 56
e 53 57
e 53 60
e 53 61
e 53 64
e 53 65
e 53 66
e 53 67
e 53 71
e 53 73
e 53 74
e 53 77
e 53 78
e 53 80
e 53 82
e 53 83
e 53 84
e 53 86
e 53 89
e 53 91
e 53 92
e 53 96
e 53 97
e 53 104
e 53 107
e 53 111
e 53 114
e 53 116
e 54 56
e 54 58
e 54 66
e 54 68
e 54 70
e 54 74
e 54 77
e 54 78
e 54 82
e 54 83
e 54 89
e 54 92
e 54 95
e 54 96
e 54 97
e 54 98
e 54 100
e 54 101
e 54 108
e 54 109
e 54 111
e 54 112
e 54 115
e 54 117
e 54 118
e 54 119
e 55 57
e 55 60
e 55 61
e 55 65
e 55 67
e 55 70
e 55 74
e 55 79
e 55 81
e 55 85
e 55 86
e 55 88
e 55 90
e 55 91
e 55 92
e 55 93
e 55 94
e 55 96
e 55 97
e 55 103
e 55 106
e 55 108
e 55 110
e 55 112
e 55 113
e 55 114
e 55 116
e 55 119
e 56 57
e 56 59
e 56 60
e 56 61
e 56 62
e 56 63
e 56 66
e 56 69
e 56 70
e 56 74
e 56 75
e 56 78
e 56 80
e 56 82
e 56 85
e 56 90
e 56 91
e 56 92
e 56 93
e 56 94
e 56 97
e 56 98
e 56 99
e 56 101
e 56 103
e 56 110
e 56 111
e 56 114
e 56 117
e 56 118
e 56 119
e 57 58
e 57 61
e 57 64
e 57 65
e 57 66
e 57 67
e 57 68
e 57 69
e 57 70
e 57 74
e 57 75
e 57 78
e 57 80
e 57 81
e 57 82
e 57 86
e 57 87
e 57 88
e 57 89
e 57 94
e 57 95
e 57 96
e 57 97
e 57 101
e 57 102
e 57 103
e 57 104
e 57 111
e 57 113
e 57 115
e 57 119
e 58 59
e 58 60
e 58 61
e 58 63
e 58 64
e 58 66
e 58 68
e 58 70
e 58 71
e 58 74
e 58 76
e 58 78
e 58 80
e 58 81
e 58 82
e 58 83
e 58 84
e 58 85
e 58 88
e 58 92
e 58 93
e 58 94
e 58 95
e 58 99
e 58 101
e 58 105
e 58 106
e 58 107
e 58 108
e 58 110
e 58 115
e 58 118
e 59 61
e 59 63
e 59 65
e 59 68
e 59 73
e 59 74
e 59 75
e 59 79
e 59 81
e 59 83
e 59 84
e 59 87
e 59 88
e 59 89
e 59 91
e 59 94
e 59 101
e 59 105
e 59 106
e 59 109
e 59 110
e 59 114
e 59 119
e 60 61
e 60 63
e 60 64
e 60 66
e 60 67
e 60 68
e 60 71
e 60 72
e 60 73
e 60 78
e 60 80
e 60 83
e 60 85
e 60 89
e 60 91
e 60 93
e 60 94
e 60 95
e 60 96
e 60 97
e 60 99
e 60 101
e 60 103
e 60 104
e 60 105
e 60 106
e 60 108
e 60 109
e 60 110
e 60 111
e 60 113
e 60 114
e 60 115
e 60 119
e 61 63
e 61 64
e 61 65
e 61 67
e 61 69
e 61 70
e 61 72
e 61 74
e 61 75
e 61 76
e 61 78
e 61 79
e 61 85
e 61 86
e 61 89
e 61 91
e 61 94
e 61 102
e 61 103
e 61 105
e 61 107
e 61 110
e 61 111
e 61 116
e 61 117
e 62 63
e 62 64
e 62 68
e 62 69
e 62 70
e 62 72
e 62 73
e 62 75
e 62 78
e 62 79
e 62 80
e 62 82
e 62 85
e 62 86
e 62 87
e 62 88
e 62 89
e 62 91
e 62 92
e 62 93
e 62 99
e 62 100
e 62 101
e 62 103
e 62 106
e 62 107
e 62 108
e 62 110
e 62 111
e 62 112
e 62 115
e 62 116
e 62 117
e 63 65
e 63 66
e 63 69
e 63 70
e 63 71
e 63 72
e 63 73
e 63 74
e 63 81
e 63 82
e 63 85
e 63 88
e 63 90
e 63 95
e 63 97
e 63 98
e 63 99
e 63 100
e 63 102
e 63 106
e 63 108
e 63 110
e 63 113
e 63 114
e 63 115
e 63 117
e 63 119
e 64 65
e 64 68
e 64 71
e 64 73
e 64 76
e 64 78
e 64 79
e 64 80
e 64 83
e 64 86
e 64 87
e 64 89
e 64 90
e 64 93
e 64 96
e 64 98
e 64 100
e 64 103
e 64 104
e 64 106
e 64 107
e 64 108
e 64 109
e 64 110
e 64 111
e 64 112
e 64 115
e 64 116
e 64 117
e 64 119
e 65 67
e 65 68
e 65 70
e 65 71
e 65 72
e 65 74
e 65 76
e 65 78
e 65 79
e 65 81
e 65 83
e 65 84
e 65 88
e 65 89
e 65 90
e 65 92
e 65 95
e 65 96
e 65 97
e 65 98
e 65 99
e 65 100
e 65 102
e 65 105
e 65 110
e 65 111
e 65 112
e 65 113
e 65 114
e 65 115
e 65 117
e 66 67
e 66 71
e 66 73
e 66 75
e 66 79
e 66 80
e 66 82
e 66 83
e 66 88
e 66 91
e 66 92
e 66 94
e 66 97
e 66 99
e 66 102
e 66 103
e 66 104
e 66 105
e 66 106
e 66 107
e 66 108
e 66 110
e 66 112
e 66 116
e 67 68
e 67 69
e 67 70
e 67 71
e 67 72
e 67 82
e 67 85
e 67 86
e 67 87
e 67 95
e 67 96
e 67 97
e 67 98
e 67 99
e 67 103
e 67 105
e 67 112
e 67 113
e 67 114
e 67 115
e 68 69
e 68 70
e 68 71
e 68 75
e 68 76
e 68 78
e 68 79
e 68 82
e 68 83
e 68 84
e 68 85
e 68 86
e 68 87
e 68 89
e 68 90
e 68 91
e 68 93
e 68 96
e 68 99
e 68 100
e 68 101
e 68 102
e 68 107
e 68 110
e 68 113
e 68 115
e 68 118
e 68 119
e 69 70
e 69 71
e 69 76
e 69 77
e 69 82
e 69 83
e 69 87
e 69 90
e 69 92
e 69 93
e 69 94
e 69 95
e 69 100
e 69 101
e 69 106
e 69 111
e 69 112
e 69 113
e 69 114
e 69 116
e 69 117
e 69 118
e 70 73
e 70 74
e 70 77
e 70 78
e 70 80
e 70 82
e 70 85
e 70 86
e 70 88
e 70 92
e 70 94
e 70 95
e 70 98
e 70 102
e 70 103
e 70 105
e 70 110
e 70 112
e 70 113
e 70 115
e 70 117
e 71 72
e 71 73
e 71 75
e 71 76
e 71 79
e 71 80
e 71 82
e 71 84
e 71 85
e 71 87
e 71 89
e 71 90
e 71 93
e 71 94
e 71 95
e 71 100
e 71 101
e 71 102
e 71 106
e 71 108
e 71 109
e 71 118
e 72 73
e 72 74
e 72 75
e 72 77
e 72 78
e 72 79
e 72 83
e 72 85
e 72 86
e 72 90
e 72 91
e 72 94
e 72 97
e 72 101
e 72 102
e 72 106
e 72 109
e 72 111
e 72 117
e 73 74
e 73 75
e 73 78
e 73 80
e 73 81
e 73 82
e 73 84
e 73 85
e 73 86
e 73 87
e 73 91
e 73 92
e 73 94
e 73 95
e 73 99
e 73 101
e 73 102
e 73 104
e 73 105
e 73 106
e 73 108
e 73 109
e 73 111
e 73 115
e 73 117
e 73 119
e 74 75
e 74 76
e 74 77
e 74 79
e 74 80
e 74 81
e 74 82
e 74 83
e 74 88
e 74 91
e 74 94
e 74 95
e 74 96
e 74 98
e 74 99
e 74 102
e 74 105
e 74 106
e 74 107
e 74 109
e 74 111
e 74 112
e 74 116
e 75 76
e 75 79
e 75 81
e 75 82
e 75 84
e 75 85
e 75 86
e 75 87
e 75 92
e 75 93
e 75 94
e 75 95
e 75 96
e 75 99
e 75 101
e 75 102
e 75 110
e 75 114
e 75 117
e 75 118
e 75 119
e 76 79
e 76 80
e 76 81
e 76 82
e 76 83
e 76 86
e 76 87
e 76 88
e 76 89
e 76 90
e 76 91
e 76 93
e 76 96
e 76 97
e 76 99
e 76 100
e 76 103
e 76 106
e 76 107
e 76 108
e 76 109
e 76 110
e 76 112
e 76 113
e 76 115
e 76 117
e 77 83
e 77 84
e 77 87
e 77 90
e 77 91
e 77 94
e 77 97
e 77 98
e 77 99
e 77 109
e 77 111
e 77 112
e 77 113
e 78 81
e 78 82
e 78 91
e 78 92
e 78 93
e 78 95
e 78 103
e 78 104
e 78 106
e 78 107
e 78 108
e 78 111
e 78 113
e 78 114
e 78 116
e 78 118
e 79 81
e 79 83
e 79 86
e 79 90
e 79 93
e 79 94
e 79 95
e 79 100
e 79 101
e 79 102
e 79 103
e 79 109
e 79 110
e 79 115
e 79 116
e 79 117
e 79 119
e 80 81
e 80 82
e 80 84
e 80 87
e 80 88
e 80 90
e 80 91
e 80 94
e 80 96
e 80 97
e 80 99
e 80 100
e 80 102
e 80 103
e 80 104
e 80 109
e 80 110
e 80 111
e 80 113
e 80 114
e 80 115
e 80 119
e 81 83
e 81 84
e 81 87
e 81 90
e 81 92
e 81 93
e 81 94
e 81 95
e 81 97
e 81 99
e 81 100
e 81 101
e 81 102
e 81 105
e 81 108
e 81 111
e 81 116
e 81 117
e 81 119
e 82 85
e 82 86
e 82 87
e 82 89
e 82 92
e 82 93
e 82 96
e 82 97
e 82 98
e 82 100
e 82 101
e 82 102
e 82 106
e 82 110
e 82 113
e 82 116
e 82 117
e 83 84
e 83 85
e 83 86
e 83 89
e 83 90
e 83 91
e 83 93
e 83 95
e 83 98
e 83 99
e 83 101
e 83 102
e 83 104
e 83 105
e 83 108
e 83 109
e 83 114
e 83 115
e 84 85
e 84 87
e 84 93
e 84 96
e 84 100
e 84 101
e 84 102
e 84 104
e 84 105
e 84 106
e 84 108
e 84 109
e 84 112
e 84 113
e 84 114
e 84 116
e 84 117
e 84 119
e 85 86
e 85 87
e 85 95
e 85 97
e 85 100
e 85 105
e 85 107
e 85 108
e 85 110
e 85 111
e 85 113
e 85 114
e 85 116
e 85 117
e 85 118
e 85 119
e 86 89
e 86 92
e 86 94
e 86 95
e 86 101
e 86 102
e 86 103
e 86 106
e 86 109
e 86 112
e 86 115
e 86 116
e 87 88
e 87 89
e 87 93
e 87 94
e 87 95
e 87 97
e 87 98
e 87 100
e 87 102
e 87 106
e 87 114
e 87 115
e 87 117
e 87 119
e 88 91
e 88 94
e 88 98
e 88 99
e 88 100
e 88 102
e 88 107
e 88 108
e 88 115
e 88 116
e 88 117
e 88 119
e 89 95
e 89 96
e 89 99
e 89 101
e 89 102
e 89 103
e 89 105
e 89 106
e 89 109
e 89 112
e 89 113
e 89 114
e 89 115
e 89 117
e 90 91
e 90 95
e 90 96
e 90 97
e 90 98
e 90 101
e 90 102
e 90 103
e 90 104
e 90 105
e 90 108
e 90 110
e 90 112
e 90 113
e 90 116
e 90 117
e 90 119
e 91 94
e 91 95
e 91 98
e 91 100
e 91 101
e 91 102
e 91 103
e 91 104
e 91 107
e 91 113
e 91 116
e 91 117
e 92 95
e 92 98
e 92 99
e 92 100
e 92 101
e 92 103
e 92 104
e 92 106
e 92 108
e 92 110
e 92 118
e 92 119
e 93 94
e 93 98
e 93 99
e 93 102
e 93 105
e 93 106
e 93 109
e 93 112
e 93 113
e 93 115
e 93 119
e 94 95
e 94 96
e 94 97
e 94 98
e 94 100
e 94 101
e 94 103
e 94 104
e 94 105
e 94 109
e 94 112
e 94 114
e 94 117
e 95 101
e 95 103
e 95 105
e 95 106
e 95 109
e 95 112
e 95 113
e 95 116
e 95 117
e 95 118
e 96 99
e 96 104
e 96 106
e 96 107
e 96 110
e 96 111
e 96 112
e 97 98
e 97 99
e 97 100
e 97 103
e 97 104
e 97 105
e 97 108
e 97 110
e 97 113
e 97 115
e 97 116
e 98 99
e 98 100
e 98 101
e 98 103
e 98 106
e 98 107
e 98 108
e 98 109
e 98 111
e 98 112
e 98 113
e 98 114
e 98 116
e 98 117
e 98 118
e 99 104
e 99 105
e 99 106
e 99 109
e 99 113
e 99 114
e 99 116
e 99 119
e 100 101
e 100 104
e 100 106
e 100 107
e 100 108
e 100 111
e 100 112
e 100 113
e 100 115
e 100 116
e 100 118
e 100 119
e 101 104
e 101 105
e 101 108
e 101 110
e 101 112
e 101 113
e 101 114
e 101 116
e 101 117
e 101 119
e 102 103
e 102 106
e 102 108
e 102 109
e 102 110
e 102 111
e 102 114
e 102 115
e 102 119
e 103 104
e 103 105
e 103 106
e 103 107
e 103 110
e 103 112
e 103 114
e 103 117
e 103 118
e 104 107
e 104 108
e 104 109
e 104 110
e 104 111
e 104 112
e 104 114
e 104 115
e 104 116
e 105 108
e 105 111
e 105 112
e 105 113
e 105 115
e 105 118
e 105 119
e 106 108
e 106 111
e 106 114
e 106 117
e 107 109
e 107 113
e 107 116
e 107 119
e 108 110
e 108 111
e 108 112
e 108 114
e 108 116
e 108 117
e 108 118
e 108 119
e 109 110
e 109 111
e 109 115
e 109 116
e 109 117
e 109 119
e 110 111
e 110 115
e 110 116
e 110 118
e 110 119
e 111 112
e 111 113
e 111 116
e 111 117
e 111 118
e 112 116
e 112 118
e 112 119
e 113 114
e 113 116
e 114 118
e 114 119
e 115 117
e 116 117
e 116 119
e 117 119
e 118 119
